50
41 1852
2821 8279
6832 1422
2541 9455
2405 681
3987 1891
615 8493
6534 1422
5191 5347
1800 4817
3066 5692
2389 3676
6831 437
4736 9334
9200 272
416 9176
608 9191
4148 7683
6037 8897
4826 7949
6860 5147
5449 5201
5957 9691
3109 3306
3879 1147
3134 559
1560 1779
8617 3177
3315 7085
1446 1531
457 336
3266 1878
3434 7147
3374 2623
8591 6797
9115 8464
7934 4314
1508 8429
630 8895
9283 9018
6739 5191
2148 6136
2590 5488
7504 4611
611 8965
3957 3656
7890 1351
8525 106
6890 506
5492 7421
